NAME : X-n876-k59
COMMENT : "Generated by Uchoa, Pecin, Pessoa, Poggi, Subramanian, and Vidal (2013)"
TYPE : CVRP
DIMENSION : 876
EDGE_WEIGHT_TYPE : EUC_2D
CAPACITY : 764
NODE_COORD_SECTION
1 0 0
2 205 638
3 893 161
4 191 775
5 444 871
6 225 445
7 226 456
8 301 566
9 140 746
10 196 791
11 356 894
12 876 165
13 56 653
14 845 153
15 139 808
16 418 823
17 94 422
18 928 162
19 341 981
20 209 815
21 172 705
22 374 765
23 291 847
24 890 163
25 250 591
26 970 235
27 251 857
28 260 618
29 162 764
30 906 149
31 247 471
32 191 464
33 587 796
34 198 622
35 878 157
36 346 812
37 435 818
38 61 783
39 362 765
40 612 859
41 194 515
42 17 446
43 903 248
44 224 732
45 225 847
46 397 945
47 215 418
48 226 733
49 972 221
50 142 476
51 168 895
52 200 480
53 119 633
54 336 808
55 499 899
56 777 171
57 476 870
58 792 163
59 288 812
60 198 613
61 336 674
62 137 629
63 325 333
64 504 837
65 230 635
66 152 785
67 280 381
68 157 615
69 919 211
70 292 398
71 222 739
72 828 150
73 208 442
74 197 773
75 877 170
76 143 623
77 99 543
78 389 437
79 161 762
80 252 631
81 57 741
82 186 706
83 167 827
84 198 737
85 150 707
86 205 347
87 38 861
88 986 232
89 348 608
90 209 620
91 45 650
92 123 656
93 189 796
94 745 402
95 223 504
96 371 909
97 173 748
98 300 680
99 519 907
100 912 247
101 486 851
102 351 603
103 361 802
104 345 809
105 300 669
106 184 781
107 95 678
108 341 854
109 850 357
110 277 718
111 398 817
112 595 938
113 251 511
114 256 570
115 139 720
116 439 977
117 152 784
118 239 824
119 204 615
120 203 430
121 201 538
122 305 605
123 257 811
124 210 654
125 896 5
126 469 802
127 608 873
128 456 878
129 298 404
130 364 459
131 193 936
132 225 517
133 878 171
134 889 224
135 246 643
136 903 67
137 188 667
138 74 625
139 891 34
140 166 625
141 352 593
142 852 122
143 738 166
144 226 451
145 289 331
146 902 312
147 290 350
148 949 143
149 853 187
150 331 440
151 388 908
152 379 421
153 113 576
154 443 857
155 228 825
156 223 473
157 236 677
158 276 929
159 935 243
160 948 144
161 420 893
162 296 718
163 265 621
164 750 158
165 163 734
166 138 677
167 706 133
168 494 871
169 431 620
170 785 201
171 59 888
172 200 544
173 62 591
174 248 791
175 450 874
176 66 681
177 304 891
178 716 135
179 902 193
180 271 663
181 143 633
182 264 607
183 125 615
184 903 146
185 192 766
186 920 407
187 207 406
188 368 628
189 258 369
190 496 929
191 802 23
192 198 597
193 883 141
194 253 331
195 928 241
196 475 920
197 217 778
198 827 143
199 758 327
200 9 757
201 164 879
202 584 811
203 880 217
204 208 811
205 891 43
206 712 541
207 222 501
208 435 700
209 561 983
210 203 458
211 841 201
212 399 849
213 405 922
214 466 714
215 413 793
216 122 590
217 134 553
218 246 457
219 506 813
220 286 652
221 851 207
222 172 387
223 274 658
224 298 692
225 279 442
226 280 567
227 186 782
228 286 764
229 171 696
230 590 986
231 271 633
232 308 909
233 941 128
234 119 877
235 125 758
236 413 530
237 102 856
238 440 612
239 503 909
240 200 669
241 311 931
242 270 504
243 846 9
244 857 70
245 198 543
246 67 565
247 240 696
248 34 561
249 886 161
250 205 442
251 209 600
252 253 812
253 251 877
254 251 355
255 907 166
256 410 893
257 475 886
258 846 170
259 799 232
260 307 561
261 281 561
262 356 706
263 685 879
264 213 97
265 221 776
266 766 256
267 139 792
268 504 966
269 188 458
270 462 208
271 990 280
272 425 862
273 132 617
274 317 742
275 264 341
276 324 634
277 469 950
278 27 749
279 219 393
280 351 815
281 921 173
282 449 874
283 256 693
284 669 859
285 903 164
286 159 801
287 175 650
288 323 607
289 891 152
290 440 836
291 210 737
292 191 758
293 108 780
294 900 213
295 828 139
296 181 452
297 359 351
298 178 757
299 283 436
300 44 689
301 186 659
302 314 859
303 102 737
304 658 1
305 453 791
306 425 948
307 173 424
308 149 514
309 790 64
310 214 648
311 277 686
312 516 905
313 278 844
314 787 72
315 461 796
316 78 694
317 144 616
318 41 715
319 213 755
320 158 408
321 205 785
322 157 504
323 166 607
324 66 652
325 400 881
326 242 589
327 385 910
328 153 665
329 67 514
330 228 344
331 579 475
332 614 815
333 735 79
334 810 90
335 4 658
336 330 500
337 427 846
338 19 918
339 327 672
340 956 153
341 224 587
342 392 748
343 886 154
344 249 734
345 812 115
346 733 302
347 414 635
348 283 479
349 608 925
350 397 947
351 217 460
352 214 448
353 164 620
354 230 662
355 935 216
356 201 694
357 94 787
358 461 857
359 171 743
360 35 898
361 856 88
362 264 895
363 292 579
364 316 750
365 557 864
366 192 747
367 790 501
368 859 177
369 202 584
370 418 862
371 154 613
372 278 613
373 116 568
374 367 501
375 355 974
376 270 414
377 199 663
378 753 185
379 611 937
380 389 841
381 493 814
382 467 883
383 196 686
384 979 283
385 671 251
386 299 613
387 175 481
388 246 965
389 78 763
390 292 719
391 303 526
392 452 889
393 255 855
394 412 741
395 179 436
396 420 960
397 899 140
398 248 445
399 365 372
400 378 855
401 567 731
402 826 202
403 250 767
404 139 394
405 513 894
406 881 116
407 370 942
408 750 291
409 104 402
410 31 560
411 417 940
412 798 198
413 495 914
414 894 162
415 154 817
416 94 373
417 287 483
418 528 792
419 246 423
420 835 226
421 234 636
422 260 750
423 461 894
424 167 289
425 56 594
426 140 517
427 234 489
428 318 719
429 994 143
430 77 565
431 224 758
432 464 893
433 281 604
434 443 852
435 961 214
436 183 785
437 186 551
438 158 602
439 978 344
440 230 446
441 271 713
442 286 851
443 571 979
444 287 648
445 344 511
446 828 52
447 38 560
448 243 482
449 309 469
450 198 727
451 162 732
452 11 367
453 875 159
454 172 772
455 522 762
456 204 654
457 844 215
458 953 250
459 343 611
460 373 950
461 535 887
462 456 964
463 131 688
464 125 751
465 429 875
466 230 449
467 207 652
468 188 430
469 186 661
470 72 422
471 464 984
472 79 664
473 765 213
474 284 425
475 450 818
476 110 733
477 84 781
478 178 864
479 863 164
480 993 250
481 176 591
482 161 837
483 930 143
484 189 469
485 217 803
486 229 622
487 459 776
488 950 81
489 201 599
490 236 408
491 222 762
492 198 340
493 119 621
494 157 367
495 844 132
496 362 469
497 376 725
498 68 519
499 914 192
500 316 406
501 313 830
502 169 799
503 866 82
504 447 48
505 231 439
506 155 565
507 926 70
508 884 109
509 857 163
510 378 718
511 598 885
512 430 709
513 484 848
514 360 441
515 214 376
516 998 234
517 274 547
518 410 782
519 348 364
520 141 549
521 299 851
522 300 676
523 175 712
524 881 110
525 406 657
526 961 115
527 437 830
528 178 409
529 355 879
530 639 866
531 246 245
532 347 454
533 976 180
534 199 482
535 272 456
536 208 828
537 241 865
538 335 749
539 85 741
540 250 783
541 872 257
542 517 540
543 578 822
544 240 562
545 269 374
546 511 912
547 592 642
548 412 876
549 151 889
550 454 724
551 248 646
552 388 408
553 892 169
554 314 508
555 410 905
556 905 265
557 208 626
558 826 31
559 366 446
560 520 859
561 882 216
562 866 142
563 201 723
564 489 953
565 207 436
566 931 286
567 315 420
568 465 765
569 178 725
570 959 212
571 286 836
572 106 783
573 839 161
574 207 653
575 880 197
576 100 699
577 413 467
578 587 908
579 900 226
580 409 902
581 108 725
582 173 511
583 192 541
584 254 417
585 439 901
586 359 922
587 201 403
588 494 798
589 567 243
590 254 441
591 405 913
592 186 353
593 592 884
594 241 806
595 93 947
596 253 495
597 201 793
598 865 120
599 150 564
600 870 80
601 96 770
602 269 599
603 881 203
604 173 844
605 326 854
606 840 141
607 153 454
608 302 878
609 347 728
610 829 280
611 182 600
612 235 375
613 94 682
614 476 900
615 127 659
616 250 889
617 165 659
618 822 95
619 328 818
620 562 462
621 894 76
622 237 482
623 824 116
624 266 674
625 336 376
626 301 679
627 193 527
628 105 922
629 449 905
630 456 866
631 192 347
632 432 995
633 183 480
634 192 660
635 472 711
636 187 859
637 581 666
638 144 458
639 310 462
640 506 672
641 309 439
642 129 762
643 182 351
644 193 763
645 848 251
646 69 514
647 978 382
648 291 445
649 360 980
650 253 694
651 121 840
652 254 614
653 255 472
654 229 456
655 187 667
656 242 459
657 295 602
658 247 488
659 248 604
660 62 657
661 229 502
662 141 521
663 906 287
664 84 662
665 18 916
666 255 564
667 310 815
668 345 904
669 215 593
670 464 806
671 161 464
672 392 457
673 608 839
674 417 815
675 257 751
676 409 779
677 211 656
678 438 990
679 941 191
680 357 627
681 207 488
682 298 756
683 217 656
684 139 755
685 163 715
686 68 718
687 770 153
688 927 408
689 894 196
690 185 765
691 135 490
692 462 963
693 90 548
694 464 630
695 179 821
696 794 244
697 415 844
698 183 692
699 852 76
700 421 782
701 911 258
702 220 422
703 22 663
704 115 875
705 395 921
706 476 787
707 258 531
708 59 511
709 160 758
710 243 815
711 100 547
712 350 659
713 290 496
714 202 526
715 834 185
716 179 431
717 831 192
718 48 759
719 420 813
720 17 690
721 76 737
722 135 595
723 670 983
724 339 453
725 283 751
726 181 571
727 143 945
728 18 770
729 284 822
730 469 797
731 188 429
732 866 252
733 240 763
734 368 807
735 135 728
736 946 170
737 223 936
738 262 582
739 488 315
740 466 885
741 171 610
742 781 308
743 204 837
744 240 317
745 310 479
746 812 120
747 173 655
748 150 951
749 208 651
750 991 264
751 572 917
752 262 410
753 158 650
754 179 716
755 124 629
756 31 691
757 306 444
758 186 627
759 435 842
760 247 809
761 591 791
762 152 737
763 165 574
764 382 828
765 292 231
766 180 671
767 282 357
768 184 786
769 179 972
770 991 236
771 861 165
772 178 631
773 168 595
774 361 801
775 445 783
776 905 182
777 420 492
778 232 684
779 836 157
780 208 436
781 202 676
782 366 385
783 186 381
784 191 251
785 320 398
786 440 871
787 258 785
788 234 547
789 912 151
790 250 390
791 936 66
792 68 604
793 760 76
794 346 276
795 178 751
796 213 655
797 106 789
798 531 949
799 185 662
800 495 886
801 277 823
802 271 387
803 228 881
804 816 221
805 893 185
806 238 980
807 215 871
808 119 397
809 166 588
810 91 782
811 238 440
812 139 814
813 332 800
814 305 717
815 27 398
816 194 401
817 305 676
818 466 826
819 256 531
820 153 742
821 262 837
822 268 447
823 923 23
824 442 792
825 846 349
826 193 755
827 857 271
828 224 543
829 627 869
830 972 244
831 209 903
832 266 665
833 275 565
834 128 462
835 487 879
836 110 751
837 168 744
838 837 152
839 172 880
840 496 803
841 215 624
842 992 152
843 218 497
844 960 163
845 954 191
846 249 552
847 156 649
848 237 830
849 229 818
850 261 498
851 350 941
852 419 930
853 887 318
854 57 375
855 432 935
856 226 708
857 178 634
858 200 453
859 452 696
860 155 636
861 304 808
862 265 655
863 522 889
864 199 348
865 268 963
866 966 105
867 315 324
868 197 285
869 485 935
870 398 221
871 214 630
872 857 266
873 244 736
874 230 784
875 177 772
876 205 796
PICKUP_AND_DELIVERY_SECTION
1 0 0 1000000000 0 0 0
2 0 0 1000000000 0 0 25
3 0 0 1000000000 0 0 94
4 0 0 1000000000 0 0 71
5 0 0 1000000000 0 59 0
6 0 0 1000000000 0 0 35
7 0 0 1000000000 0 0 5
8 0 0 1000000000 0 0 45
9 0 0 1000000000 0 40 0
10 0 0 1000000000 0 0 6
11 0 0 1000000000 0 0 72
12 0 0 1000000000 0 0 23
13 0 0 1000000000 0 93 0
14 0 0 1000000000 0 0 13
15 0 0 1000000000 0 0 83
16 0 0 1000000000 0 0 26
17 0 0 1000000000 0 11 0
18 0 0 1000000000 0 0 6
19 0 0 1000000000 0 0 91
20 0 0 1000000000 0 0 68
21 0 0 1000000000 0 7 0
22 0 0 1000000000 0 0 75
23 0 0 1000000000 0 0 31
24 0 0 1000000000 0 0 33
25 0 0 1000000000 0 86 0
26 0 0 1000000000 0 0 42
27 0 0 1000000000 0 0 43
28 0 0 1000000000 0 0 77
29 0 0 1000000000 0 35 0
30 0 0 1000000000 0 0 74
31 0 0 1000000000 0 0 37
32 0 0 1000000000 0 0 55
33 0 0 1000000000 0 49 0
34 0 0 1000000000 0 0 18
35 0 0 1000000000 0 0 72
36 0 0 1000000000 0 0 69
37 0 0 1000000000 0 72 0
38 0 0 1000000000 0 0 72
39 0 0 1000000000 0 0 65
40 0 0 1000000000 0 0 51
41 0 0 1000000000 0 71 0
42 0 0 1000000000 0 0 69
43 0 0 1000000000 0 0 23
44 0 0 1000000000 0 0 58
45 0 0 1000000000 0 28 0
46 0 0 1000000000 0 0 91
47 0 0 1000000000 0 0 4
48 0 0 1000000000 0 0 2
49 0 0 1000000000 0 62 0
50 0 0 1000000000 0 0 11
51 0 0 1000000000 0 0 94
52 0 0 1000000000 0 0 1
53 0 0 1000000000 0 76 0
54 0 0 1000000000 0 0 56
55 0 0 1000000000 0 0 21
56 0 0 1000000000 0 0 57
57 0 0 1000000000 0 24 0
58 0 0 1000000000 0 0 95
59 0 0 1000000000 0 0 84
60 0 0 1000000000 0 0 54
61 0 0 1000000000 0 6 0
62 0 0 1000000000 0 0 55
63 0 0 1000000000 0 0 10
64 0 0 1000000000 0 0 87
65 0 0 1000000000 0 94 0
66 0 0 1000000000 0 0 55
67 0 0 1000000000 0 0 42
68 0 0 1000000000 0 0 14
69 0 0 1000000000 0 70 0
70 0 0 1000000000 0 0 79
71 0 0 1000000000 0 0 40
72 0 0 1000000000 0 0 32
73 0 0 1000000000 0 1 0
74 0 0 1000000000 0 0 57
75 0 0 1000000000 0 0 21
76 0 0 1000000000 0 0 78
77 0 0 1000000000 0 33 0
78 0 0 1000000000 0 0 82
79 0 0 1000000000 0 0 8
80 0 0 1000000000 0 0 54
81 0 0 1000000000 0 11 0
82 0 0 1000000000 0 0 49
83 0 0 1000000000 0 0 23
84 0 0 1000000000 0 0 83
85 0 0 1000000000 0 26 0
86 0 0 1000000000 0 0 21
87 0 0 1000000000 0 0 86
88 0 0 1000000000 0 0 83
89 0 0 1000000000 0 82 0
90 0 0 1000000000 0 0 14
91 0 0 1000000000 0 0 54
92 0 0 1000000000 0 0 67
93 0 0 1000000000 0 93 0
94 0 0 1000000000 0 0 13
95 0 0 1000000000 0 0 75
96 0 0 1000000000 0 0 72
97 0 0 1000000000 0 7 0
98 0 0 1000000000 0 0 15
99 0 0 1000000000 0 0 71
100 0 0 1000000000 0 0 9
101 0 0 1000000000 0 44 0
102 0 0 1000000000 0 0 84
103 0 0 1000000000 0 0 49
104 0 0 1000000000 0 0 42
105 0 0 1000000000 0 71 0
106 0 0 1000000000 0 0 50
107 0 0 1000000000 0 0 30
108 0 0 1000000000 0 0 85
109 0 0 1000000000 0 99 0
110 0 0 1000000000 0 0 15
111 0 0 1000000000 0 0 11
112 0 0 1000000000 0 0 35
113 0 0 1000000000 0 98 0
114 0 0 1000000000 0 0 99
115 0 0 1000000000 0 0 43
116 0 0 1000000000 0 0 17
117 0 0 1000000000 0 47 0
118 0 0 1000000000 0 0 97
119 0 0 1000000000 0 0 42
120 0 0 1000000000 0 0 64
121 0 0 1000000000 0 100 0
122 0 0 1000000000 0 0 75
123 0 0 1000000000 0 0 20
124 0 0 1000000000 0 0 20
125 0 0 1000000000 0 87 0
126 0 0 1000000000 0 0 78
127 0 0 1000000000 0 0 45
128 0 0 1000000000 0 0 62
129 0 0 1000000000 0 28 0
130 0 0 1000000000 0 0 74
131 0 0 1000000000 0 0 23
132 0 0 1000000000 0 0 57
133 0 0 1000000000 0 84 0
134 0 0 1000000000 0 0 14
135 0 0 1000000000 0 0 5
136 0 0 1000000000 0 0 32
137 0 0 1000000000 0 23 0
138 0 0 1000000000 0 0 25
139 0 0 1000000000 0 0 18
140 0 0 1000000000 0 0 84
141 0 0 1000000000 0 17 0
142 0 0 1000000000 0 0 19
143 0 0 1000000000 0 0 29
144 0 0 1000000000 0 0 98
145 0 0 1000000000 0 64 0
146 0 0 1000000000 0 0 38
147 0 0 1000000000 0 0 20
148 0 0 1000000000 0 0 4
149 0 0 1000000000 0 29 0
150 0 0 1000000000 0 0 14
151 0 0 1000000000 0 0 2
152 0 0 1000000000 0 0 53
153 0 0 1000000000 0 20 0
154 0 0 1000000000 0 0 58
155 0 0 1000000000 0 0 46
156 0 0 1000000000 0 0 15
157 0 0 1000000000 0 77 0
158 0 0 1000000000 0 0 78
159 0 0 1000000000 0 0 38
160 0 0 1000000000 0 0 11
161 0 0 1000000000 0 98 0
162 0 0 1000000000 0 0 12
163 0 0 1000000000 0 0 66
164 0 0 1000000000 0 0 60
165 0 0 1000000000 0 81 0
166 0 0 1000000000 0 0 99
167 0 0 1000000000 0 0 24
168 0 0 1000000000 0 0 58
169 0 0 1000000000 0 96 0
170 0 0 1000000000 0 0 60
171 0 0 1000000000 0 0 49
172 0 0 1000000000 0 0 77
173 0 0 1000000000 0 77 0
174 0 0 1000000000 0 0 21
175 0 0 1000000000 0 0 76
176 0 0 1000000000 0 0 96
177 0 0 1000000000 0 48 0
178 0 0 1000000000 0 0 44
179 0 0 1000000000 0 0 19
180 0 0 1000000000 0 0 50
181 0 0 1000000000 0 64 0
182 0 0 1000000000 0 0 98
183 0 0 1000000000 0 0 84
184 0 0 1000000000 0 0 3
185 0 0 1000000000 0 81 0
186 0 0 1000000000 0 0 41
187 0 0 1000000000 0 0 99
188 0 0 1000000000 0 0 57
189 0 0 1000000000 0 54 0
190 0 0 1000000000 0 0 40
191 0 0 1000000000 0 0 69
192 0 0 1000000000 0 0 72
193 0 0 1000000000 0 57 0
194 0 0 1000000000 0 0 7
195 0 0 1000000000 0 0 63
196 0 0 1000000000 0 0 23
197 0 0 1000000000 0 26 0
198 0 0 1000000000 0 0 65
199 0 0 1000000000 0 0 23
200 0 0 1000000000 0 0 70
201 0 0 1000000000 0 31 0
202 0 0 1000000000 0 0 34
203 0 0 1000000000 0 0 90
204 0 0 1000000000 0 0 67
205 0 0 1000000000 0 70 0
206 0 0 1000000000 0 0 50
207 0 0 1000000000 0 0 68
208 0 0 1000000000 0 0 83
209 0 0 1000000000 0 93 0
210 0 0 1000000000 0 0 97
211 0 0 1000000000 0 0 7
212 0 0 1000000000 0 0 55
213 0 0 1000000000 0 42 0
214 0 0 1000000000 0 0 78
215 0 0 1000000000 0 0 4
216 0 0 1000000000 0 0 67
217 0 0 1000000000 0 25 0
218 0 0 1000000000 0 0 1
219 0 0 1000000000 0 0 43
220 0 0 1000000000 0 0 47
221 0 0 1000000000 0 10 0
222 0 0 1000000000 0 0 92
223 0 0 1000000000 0 0 52
224 0 0 1000000000 0 0 98
225 0 0 1000000000 0 47 0
226 0 0 1000000000 0 0 36
227 0 0 1000000000 0 0 82
228 0 0 1000000000 0 0 48
229 0 0 1000000000 0 9 0
230 0 0 1000000000 0 0 41
231 0 0 1000000000 0 0 16
232 0 0 1000000000 0 0 24
233 0 0 1000000000 0 68 0
234 0 0 1000000000 0 0 25
235 0 0 1000000000 0 0 5
236 0 0 1000000000 0 0 58
237 0 0 1000000000 0 86 0
238 0 0 1000000000 0 0 33
239 0 0 1000000000 0 0 22
240 0 0 1000000000 0 0 12
241 0 0 1000000000 0 38 0
242 0 0 1000000000 0 0 73
243 0 0 1000000000 0 0 48
244 0 0 1000000000 0 0 25
245 0 0 1000000000 0 53 0
246 0 0 1000000000 0 0 82
247 0 0 1000000000 0 0 75
248 0 0 1000000000 0 0 98
249 0 0 1000000000 0 92 0
250 0 0 1000000000 0 0 17
251 0 0 1000000000 0 0 46
252 0 0 1000000000 0 0 89
253 0 0 1000000000 0 35 0
254 0 0 1000000000 0 0 63
255 0 0 1000000000 0 0 5
256 0 0 1000000000 0 0 42
257 0 0 1000000000 0 7 0
258 0 0 1000000000 0 0 78
259 0 0 1000000000 0 0 87
260 0 0 1000000000 0 0 38
261 0 0 1000000000 0 22 0
262 0 0 1000000000 0 0 55
263 0 0 1000000000 0 0 20
264 0 0 1000000000 0 0 72
265 0 0 1000000000 0 50 0
266 0 0 1000000000 0 0 11
267 0 0 1000000000 0 0 61
268 0 0 1000000000 0 0 53
269 0 0 1000000000 0 17 0
270 0 0 1000000000 0 0 99
271 0 0 1000000000 0 0 53
272 0 0 1000000000 0 0 35
273 0 0 1000000000 0 23 0
274 0 0 1000000000 0 0 50
275 0 0 1000000000 0 0 8
276 0 0 1000000000 0 0 62
277 0 0 1000000000 0 89 0
278 0 0 1000000000 0 0 39
279 0 0 1000000000 0 0 15
280 0 0 1000000000 0 0 50
281 0 0 1000000000 0 22 0
282 0 0 1000000000 0 0 67
283 0 0 1000000000 0 0 71
284 0 0 1000000000 0 0 87
285 0 0 1000000000 0 19 0
286 0 0 1000000000 0 0 81
287 0 0 1000000000 0 0 43
288 0 0 1000000000 0 0 58
289 0 0 1000000000 0 79 0
290 0 0 1000000000 0 0 11
291 0 0 1000000000 0 0 44
292 0 0 1000000000 0 0 97
293 0 0 1000000000 0 53 0
294 0 0 1000000000 0 0 36
295 0 0 1000000000 0 0 50
296 0 0 1000000000 0 0 66
297 0 0 1000000000 0 15 0
298 0 0 1000000000 0 0 69
299 0 0 1000000000 0 0 23
300 0 0 1000000000 0 0 54
301 0 0 1000000000 0 52 0
302 0 0 1000000000 0 0 75
303 0 0 1000000000 0 0 76
304 0 0 1000000000 0 0 5
305 0 0 1000000000 0 91 0
306 0 0 1000000000 0 0 8
307 0 0 1000000000 0 0 54
308 0 0 1000000000 0 0 68
309 0 0 1000000000 0 39 0
310 0 0 1000000000 0 0 76
311 0 0 1000000000 0 0 39
312 0 0 1000000000 0 0 76
313 0 0 1000000000 0 57 0
314 0 0 1000000000 0 0 29
315 0 0 1000000000 0 0 86
316 0 0 1000000000 0 0 43
317 0 0 1000000000 0 53 0
318 0 0 1000000000 0 0 73
319 0 0 1000000000 0 0 80
320 0 0 1000000000 0 0 97
321 0 0 1000000000 0 2 0
322 0 0 1000000000 0 0 13
323 0 0 1000000000 0 0 19
324 0 0 1000000000 0 0 27
325 0 0 1000000000 0 95 0
326 0 0 1000000000 0 0 11
327 0 0 1000000000 0 0 21
328 0 0 1000000000 0 0 61
329 0 0 1000000000 0 5 0
330 0 0 1000000000 0 0 79
331 0 0 1000000000 0 0 56
332 0 0 1000000000 0 0 66
333 0 0 1000000000 0 83 0
334 0 0 1000000000 0 0 91
335 0 0 1000000000 0 0 7
336 0 0 1000000000 0 0 77
337 0 0 1000000000 0 81 0
338 0 0 1000000000 0 0 24
339 0 0 1000000000 0 0 50
340 0 0 1000000000 0 0 48
341 0 0 1000000000 0 95 0
342 0 0 1000000000 0 0 21
343 0 0 1000000000 0 0 62
344 0 0 1000000000 0 0 28
345 0 0 1000000000 0 37 0
346 0 0 1000000000 0 0 81
347 0 0 1000000000 0 0 55
348 0 0 1000000000 0 0 60
349 0 0 1000000000 0 27 0
350 0 0 1000000000 0 0 69
351 0 0 1000000000 0 0 34
352 0 0 1000000000 0 0 14
353 0 0 1000000000 0 19 0
354 0 0 1000000000 0 0 63
355 0 0 1000000000 0 0 78
356 0 0 1000000000 0 0 32
357 0 0 1000000000 0 38 0
358 0 0 1000000000 0 0 9
359 0 0 1000000000 0 0 50
360 0 0 1000000000 0 0 9
361 0 0 1000000000 0 60 0
362 0 0 1000000000 0 0 18
363 0 0 1000000000 0 0 27
364 0 0 1000000000 0 0 90
365 0 0 1000000000 0 99 0
366 0 0 1000000000 0 0 74
367 0 0 1000000000 0 0 62
368 0 0 1000000000 0 0 3
369 0 0 1000000000 0 33 0
370 0 0 1000000000 0 0 76
371 0 0 1000000000 0 0 62
372 0 0 1000000000 0 0 4
373 0 0 1000000000 0 47 0
374 0 0 1000000000 0 0 3
375 0 0 1000000000 0 0 100
376 0 0 1000000000 0 0 60
377 0 0 1000000000 0 2 0
378 0 0 1000000000 0 0 1
379 0 0 1000000000 0 0 44
380 0 0 1000000000 0 0 42
381 0 0 1000000000 0 33 0
382 0 0 1000000000 0 0 96
383 0 0 1000000000 0 0 19
384 0 0 1000000000 0 0 62
385 0 0 1000000000 0 68 0
386 0 0 1000000000 0 0 37
387 0 0 1000000000 0 0 86
388 0 0 1000000000 0 0 15
389 0 0 1000000000 0 72 0
390 0 0 1000000000 0 0 58
391 0 0 1000000000 0 0 51
392 0 0 1000000000 0 0 63
393 0 0 1000000000 0 21 0
394 0 0 1000000000 0 0 64
395 0 0 1000000000 0 0 1
396 0 0 1000000000 0 0 30
397 0 0 1000000000 0 92 0
398 0 0 1000000000 0 0 52
399 0 0 1000000000 0 0 56
400 0 0 1000000000 0 0 36
401 0 0 1000000000 0 90 0
402 0 0 1000000000 0 0 43
403 0 0 1000000000 0 0 56
404 0 0 1000000000 0 0 40
405 0 0 1000000000 0 86 0
406 0 0 1000000000 0 0 50
407 0 0 1000000000 0 0 69
408 0 0 1000000000 0 0 25
409 0 0 1000000000 0 94 0
410 0 0 1000000000 0 0 68
411 0 0 1000000000 0 0 19
412 0 0 1000000000 0 0 92
413 0 0 1000000000 0 61 0
414 0 0 1000000000 0 0 82
415 0 0 1000000000 0 0 51
416 0 0 1000000000 0 0 93
417 0 0 1000000000 0 91 0
418 0 0 1000000000 0 0 15
419 0 0 1000000000 0 0 8
420 0 0 1000000000 0 0 79
421 0 0 1000000000 0 88 0
422 0 0 1000000000 0 0 85
423 0 0 1000000000 0 0 41
424 0 0 1000000000 0 0 77
425 0 0 1000000000 0 28 0
426 0 0 1000000000 0 0 96
427 0 0 1000000000 0 0 43
428 0 0 1000000000 0 0 90
429 0 0 1000000000 0 52 0
430 0 0 1000000000 0 0 53
431 0 0 1000000000 0 0 5
432 0 0 1000000000 0 0 29
433 0 0 1000000000 0 90 0
434 0 0 1000000000 0 0 2
435 0 0 1000000000 0 0 98
436 0 0 1000000000 0 0 58
437 0 0 1000000000 0 2 0
438 0 0 1000000000 0 0 90
439 0 0 1000000000 0 0 84
440 0 0 1000000000 0 0 75
441 0 0 1000000000 0 52 0
442 0 0 1000000000 0 0 59
443 0 0 1000000000 0 0 45
444 0 0 1000000000 0 0 12
445 0 0 1000000000 0 2 0
446 0 0 1000000000 0 0 56
447 0 0 1000000000 0 0 46
448 0 0 1000000000 0 0 62
449 0 0 1000000000 0 29 0
450 0 0 1000000000 0 0 75
451 0 0 1000000000 0 0 10
452 0 0 1000000000 0 0 27
453 0 0 1000000000 0 77 0
454 0 0 1000000000 0 0 19
455 0 0 1000000000 0 0 35
456 0 0 1000000000 0 0 3
457 0 0 1000000000 0 23 0
458 0 0 1000000000 0 0 91
459 0 0 1000000000 0 0 20
460 0 0 1000000000 0 0 72
461 0 0 1000000000 0 70 0
462 0 0 1000000000 0 0 6
463 0 0 1000000000 0 0 25
464 0 0 1000000000 0 0 35
465 0 0 1000000000 0 75 0
466 0 0 1000000000 0 0 32
467 0 0 1000000000 0 0 53
468 0 0 1000000000 0 0 62
469 0 0 1000000000 0 87 0
470 0 0 1000000000 0 0 51
471 0 0 1000000000 0 0 61
472 0 0 1000000000 0 0 65
473 0 0 1000000000 0 18 0
474 0 0 1000000000 0 0 53
475 0 0 1000000000 0 0 89
476 0 0 1000000000 0 0 7
477 0 0 1000000000 0 45 0
478 0 0 1000000000 0 0 45
479 0 0 1000000000 0 0 19
480 0 0 1000000000 0 0 20
481 0 0 1000000000 0 22 0
482 0 0 1000000000 0 0 94
483 0 0 1000000000 0 0 59
484 0 0 1000000000 0 0 62
485 0 0 1000000000 0 29 0
486 0 0 1000000000 0 0 89
487 0 0 1000000000 0 0 49
488 0 0 1000000000 0 0 95
489 0 0 1000000000 0 45 0
490 0 0 1000000000 0 0 28
491 0 0 1000000000 0 0 97
492 0 0 1000000000 0 0 80
493 0 0 1000000000 0 37 0
494 0 0 1000000000 0 0 39
495 0 0 1000000000 0 0 30
496 0 0 1000000000 0 0 9
497 0 0 1000000000 0 86 0
498 0 0 1000000000 0 0 10
499 0 0 1000000000 0 0 86
500 0 0 1000000000 0 0 54
501 0 0 1000000000 0 29 0
502 0 0 1000000000 0 0 61
503 0 0 1000000000 0 0 15
504 0 0 1000000000 0 0 48
505 0 0 1000000000 0 32 0
506 0 0 1000000000 0 0 28
507 0 0 1000000000 0 0 15
508 0 0 1000000000 0 0 78
509 0 0 1000000000 0 82 0
510 0 0 1000000000 0 0 78
511 0 0 1000000000 0 0 86
512 0 0 1000000000 0 0 21
513 0 0 1000000000 0 10 0
514 0 0 1000000000 0 0 52
515 0 0 1000000000 0 0 19
516 0 0 1000000000 0 0 88
517 0 0 1000000000 0 35 0
518 0 0 1000000000 0 0 21
519 0 0 1000000000 0 0 99
520 0 0 1000000000 0 0 6
521 0 0 1000000000 0 36 0
522 0 0 1000000000 0 0 85
523 0 0 1000000000 0 0 38
524 0 0 1000000000 0 0 16
525 0 0 1000000000 0 43 0
526 0 0 1000000000 0 0 79
527 0 0 1000000000 0 0 38
528 0 0 1000000000 0 0 1
529 0 0 1000000000 0 63 0
530 0 0 1000000000 0 0 16
531 0 0 1000000000 0 0 64
532 0 0 1000000000 0 0 39
533 0 0 1000000000 0 21 0
534 0 0 1000000000 0 0 48
535 0 0 1000000000 0 0 63
536 0 0 1000000000 0 0 76
537 0 0 1000000000 0 35 0
538 0 0 1000000000 0 0 61
539 0 0 1000000000 0 0 89
540 0 0 1000000000 0 0 30
541 0 0 1000000000 0 4 0
542 0 0 1000000000 0 0 83
543 0 0 1000000000 0 0 63
544 0 0 1000000000 0 0 18
545 0 0 1000000000 0 35 0
546 0 0 1000000000 0 0 25
547 0 0 1000000000 0 0 56
548 0 0 1000000000 0 0 7
549 0 0 1000000000 0 86 0
550 0 0 1000000000 0 0 45
551 0 0 1000000000 0 0 99
552 0 0 1000000000 0 0 89
553 0 0 1000000000 0 35 0
554 0 0 1000000000 0 0 40
555 0 0 1000000000 0 0 11
556 0 0 1000000000 0 0 84
557 0 0 1000000000 0 78 0
558 0 0 1000000000 0 0 55
559 0 0 1000000000 0 0 62
560 0 0 1000000000 0 0 67
561 0 0 1000000000 0 46 0
562 0 0 1000000000 0 0 26
563 0 0 1000000000 0 0 52
564 0 0 1000000000 0 0 18
565 0 0 1000000000 0 53 0
566 0 0 1000000000 0 0 41
567 0 0 1000000000 0 0 20
568 0 0 1000000000 0 0 2
569 0 0 1000000000 0 67 0
570 0 0 1000000000 0 0 32
571 0 0 1000000000 0 0 77
572 0 0 1000000000 0 0 65
573 0 0 1000000000 0 1 0
574 0 0 1000000000 0 0 88
575 0 0 1000000000 0 0 64
576 0 0 1000000000 0 0 65
577 0 0 1000000000 0 37 0
578 0 0 1000000000 0 0 92
579 0 0 1000000000 0 0 36
580 0 0 1000000000 0 0 23
581 0 0 1000000000 0 72 0
582 0 0 1000000000 0 0 89
583 0 0 1000000000 0 0 66
584 0 0 1000000000 0 0 97
585 0 0 1000000000 0 85 0
586 0 0 1000000000 0 0 71
587 0 0 1000000000 0 0 81
588 0 0 1000000000 0 0 87
589 0 0 1000000000 0 34 0
590 0 0 1000000000 0 0 96
591 0 0 1000000000 0 0 20
592 0 0 1000000000 0 0 58
593 0 0 1000000000 0 77 0
594 0 0 1000000000 0 0 19
595 0 0 1000000000 0 0 16
596 0 0 1000000000 0 0 96
597 0 0 1000000000 0 16 0
598 0 0 1000000000 0 0 67
599 0 0 1000000000 0 0 1
600 0 0 1000000000 0 0 80
601 0 0 1000000000 0 69 0
602 0 0 1000000000 0 0 18
603 0 0 1000000000 0 0 45
604 0 0 1000000000 0 0 87
605 0 0 1000000000 0 63 0
606 0 0 1000000000 0 0 20
607 0 0 1000000000 0 0 7
608 0 0 1000000000 0 0 15
609 0 0 1000000000 0 57 0
610 0 0 1000000000 0 0 31
611 0 0 1000000000 0 0 24
612 0 0 1000000000 0 0 38
613 0 0 1000000000 0 84 0
614 0 0 1000000000 0 0 80
615 0 0 1000000000 0 0 15
616 0 0 1000000000 0 0 83
617 0 0 1000000000 0 24 0
618 0 0 1000000000 0 0 57
619 0 0 1000000000 0 0 13
620 0 0 1000000000 0 0 28
621 0 0 1000000000 0 100 0
622 0 0 1000000000 0 0 28
623 0 0 1000000000 0 0 27
624 0 0 1000000000 0 0 29
625 0 0 1000000000 0 95 0
626 0 0 1000000000 0 0 74
627 0 0 1000000000 0 0 20
628 0 0 1000000000 0 0 75
629 0 0 1000000000 0 99 0
630 0 0 1000000000 0 0 55
631 0 0 1000000000 0 0 22
632 0 0 1000000000 0 0 63
633 0 0 1000000000 0 81 0
634 0 0 1000000000 0 0 97
635 0 0 1000000000 0 0 57
636 0 0 1000000000 0 0 98
637 0 0 1000000000 0 82 0
638 0 0 1000000000 0 0 9
639 0 0 1000000000 0 0 6
640 0 0 1000000000 0 0 19
641 0 0 1000000000 0 34 0
642 0 0 1000000000 0 0 21
643 0 0 1000000000 0 0 87
644 0 0 1000000000 0 0 57
645 0 0 1000000000 0 12 0
646 0 0 1000000000 0 0 46
647 0 0 1000000000 0 0 62
648 0 0 1000000000 0 0 1
649 0 0 1000000000 0 95 0
650 0 0 1000000000 0 0 74
651 0 0 1000000000 0 0 73
652 0 0 1000000000 0 0 10
653 0 0 1000000000 0 69 0
654 0 0 1000000000 0 0 80
655 0 0 1000000000 0 0 98
656 0 0 1000000000 0 0 31
657 0 0 1000000000 0 42 0
658 0 0 1000000000 0 0 68
659 0 0 1000000000 0 0 32
660 0 0 1000000000 0 0 59
661 0 0 1000000000 0 95 0
662 0 0 1000000000 0 0 32
663 0 0 1000000000 0 0 99
664 0 0 1000000000 0 0 4
665 0 0 1000000000 0 45 0
666 0 0 1000000000 0 0 48
667 0 0 1000000000 0 0 81
668 0 0 1000000000 0 0 1
669 0 0 1000000000 0 47 0
670 0 0 1000000000 0 0 82
671 0 0 1000000000 0 0 78
672 0 0 1000000000 0 0 33
673 0 0 1000000000 0 11 0
674 0 0 1000000000 0 0 39
675 0 0 1000000000 0 0 89
676 0 0 1000000000 0 0 81
677 0 0 1000000000 0 47 0
678 0 0 1000000000 0 0 17
679 0 0 1000000000 0 0 22
680 0 0 1000000000 0 0 3
681 0 0 1000000000 0 37 0
682 0 0 1000000000 0 0 2
683 0 0 1000000000 0 0 27
684 0 0 1000000000 0 0 36
685 0 0 1000000000 0 29 0
686 0 0 1000000000 0 0 81
687 0 0 1000000000 0 0 48
688 0 0 1000000000 0 0 19
689 0 0 1000000000 0 58 0
690 0 0 1000000000 0 0 80
691 0 0 1000000000 0 0 16
692 0 0 1000000000 0 0 49
693 0 0 1000000000 0 92 0
694 0 0 1000000000 0 0 28
695 0 0 1000000000 0 0 47
696 0 0 1000000000 0 0 56
697 0 0 1000000000 0 100 0
698 0 0 1000000000 0 0 48
699 0 0 1000000000 0 0 81
700 0 0 1000000000 0 0 1
701 0 0 1000000000 0 50 0
702 0 0 1000000000 0 0 68
703 0 0 1000000000 0 0 37
704 0 0 1000000000 0 0 9
705 0 0 1000000000 0 27 0
706 0 0 1000000000 0 0 64
707 0 0 1000000000 0 0 96
708 0 0 1000000000 0 0 14
709 0 0 1000000000 0 80 0
710 0 0 1000000000 0 0 19
711 0 0 1000000000 0 0 12
712 0 0 1000000000 0 0 43
713 0 0 1000000000 0 91 0
714 0 0 1000000000 0 0 19
715 0 0 1000000000 0 0 39
716 0 0 1000000000 0 0 9
717 0 0 1000000000 0 72 0
718 0 0 1000000000 0 0 59
719 0 0 1000000000 0 0 95
720 0 0 1000000000 0 0 45
721 0 0 1000000000 0 84 0
722 0 0 1000000000 0 0 87
723 0 0 1000000000 0 0 38
724 0 0 1000000000 0 0 51
725 0 0 1000000000 0 83 0
726 0 0 1000000000 0 0 69
727 0 0 1000000000 0 0 82
728 0 0 1000000000 0 0 72
729 0 0 1000000000 0 88 0
730 0 0 1000000000 0 0 75
731 0 0 1000000000 0 0 23
732 0 0 1000000000 0 0 99
733 0 0 1000000000 0 81 0
734 0 0 1000000000 0 0 94
735 0 0 1000000000 0 0 99
736 0 0 1000000000 0 0 99
737 0 0 1000000000 0 23 0
738 0 0 1000000000 0 0 73
739 0 0 1000000000 0 0 75
740 0 0 1000000000 0 0 60
741 0 0 1000000000 0 1 0
742 0 0 1000000000 0 0 82
743 0 0 1000000000 0 0 47
744 0 0 1000000000 0 0 74
745 0 0 1000000000 0 98 0
746 0 0 1000000000 0 0 2
747 0 0 1000000000 0 0 77
748 0 0 1000000000 0 0 34
749 0 0 1000000000 0 89 0
750 0 0 1000000000 0 0 40
751 0 0 1000000000 0 0 52
752 0 0 1000000000 0 0 63
753 0 0 1000000000 0 61 0
754 0 0 1000000000 0 0 68
755 0 0 1000000000 0 0 64
756 0 0 1000000000 0 0 66
757 0 0 1000000000 0 57 0
758 0 0 1000000000 0 0 85
759 0 0 1000000000 0 0 20
760 0 0 1000000000 0 0 5
761 0 0 1000000000 0 49 0
762 0 0 1000000000 0 0 9
763 0 0 1000000000 0 0 72
764 0 0 1000000000 0 0 100
765 0 0 1000000000 0 31 0
766 0 0 1000000000 0 0 89
767 0 0 1000000000 0 0 80
768 0 0 1000000000 0 0 57
769 0 0 1000000000 0 40 0
770 0 0 1000000000 0 0 45
771 0 0 1000000000 0 0 90
772 0 0 1000000000 0 0 21
773 0 0 1000000000 0 1 0
774 0 0 1000000000 0 0 33
775 0 0 1000000000 0 0 41
776 0 0 1000000000 0 0 48
777 0 0 1000000000 0 98 0
778 0 0 1000000000 0 0 30
779 0 0 1000000000 0 0 5
780 0 0 1000000000 0 0 11
781 0 0 1000000000 0 70 0
782 0 0 1000000000 0 0 55
783 0 0 1000000000 0 0 36
784 0 0 1000000000 0 0 26
785 0 0 1000000000 0 28 0
786 0 0 1000000000 0 0 1
787 0 0 1000000000 0 0 59
788 0 0 1000000000 0 0 99
789 0 0 1000000000 0 6 0
790 0 0 1000000000 0 0 3
791 0 0 1000000000 0 0 76
792 0 0 1000000000 0 0 9
793 0 0 1000000000 0 24 0
794 0 0 1000000000 0 0 26
795 0 0 1000000000 0 0 95
796 0 0 1000000000 0 0 6
797 0 0 1000000000 0 91 0
798 0 0 1000000000 0 0 80
799 0 0 1000000000 0 0 96
800 0 0 1000000000 0 0 37
801 0 0 1000000000 0 18 0
802 0 0 1000000000 0 0 58
803 0 0 1000000000 0 0 7
804 0 0 1000000000 0 0 100
805 0 0 1000000000 0 71 0
806 0 0 1000000000 0 0 100
807 0 0 1000000000 0 0 12
808 0 0 1000000000 0 0 20
809 0 0 1000000000 0 33 0
810 0 0 1000000000 0 0 82
811 0 0 1000000000 0 0 89
812 0 0 1000000000 0 0 46
813 0 0 1000000000 0 5 0
814 0 0 1000000000 0 0 31
815 0 0 1000000000 0 0 63
816 0 0 1000000000 0 0 86
817 0 0 1000000000 0 28 0
818 0 0 1000000000 0 0 64
819 0 0 1000000000 0 0 90
820 0 0 1000000000 0 0 51
821 0 0 1000000000 0 19 0
822 0 0 1000000000 0 0 51
823 0 0 1000000000 0 0 65
824 0 0 1000000000 0 0 36
825 0 0 1000000000 0 53 0
826 0 0 1000000000 0 0 6
827 0 0 1000000000 0 0 57
828 0 0 1000000000 0 0 20
829 0 0 1000000000 0 50 0
830 0 0 1000000000 0 0 97
831 0 0 1000000000 0 0 63
832 0 0 1000000000 0 0 91
833 0 0 1000000000 0 99 0
834 0 0 1000000000 0 0 90
835 0 0 1000000000 0 0 92
836 0 0 1000000000 0 0 1
837 0 0 1000000000 0 100 0
838 0 0 1000000000 0 0 11
839 0 0 1000000000 0 0 75
840 0 0 1000000000 0 0 41
841 0 0 1000000000 0 41 0
842 0 0 1000000000 0 0 34
843 0 0 1000000000 0 0 95
844 0 0 1000000000 0 0 40
845 0 0 1000000000 0 86 0
846 0 0 1000000000 0 0 95
847 0 0 1000000000 0 0 47
848 0 0 1000000000 0 0 97
849 0 0 1000000000 0 99 0
850 0 0 1000000000 0 0 35
851 0 0 1000000000 0 0 21
852 0 0 1000000000 0 0 27
853 0 0 1000000000 0 88 0
854 0 0 1000000000 0 0 58
855 0 0 1000000000 0 0 4
856 0 0 1000000000 0 0 40
857 0 0 1000000000 0 77 0
858 0 0 1000000000 0 0 25
859 0 0 1000000000 0 0 23
860 0 0 1000000000 0 0 46
861 0 0 1000000000 0 100 0
862 0 0 1000000000 0 0 67
863 0 0 1000000000 0 0 95
864 0 0 1000000000 0 0 73
865 0 0 1000000000 0 21 0
866 0 0 1000000000 0 0 20
867 0 0 1000000000 0 0 10
868 0 0 1000000000 0 0 27
869 0 0 1000000000 0 81 0
870 0 0 1000000000 0 0 95
871 0 0 1000000000 0 0 44
872 0 0 1000000000 0 0 66
873 0 0 1000000000 0 66 0
874 0 0 1000000000 0 0 65
875 0 0 1000000000 0 0 88
876 0 0 1000000000 0 0 98
